
<<< setup

Version identifier: 22.1.1.0 | 2022-11-27 | 9160aff4d
Tried aggregator 1 time.
LP Presolve eliminated 112 rows and 90 columns.
Reduced LP has 1 rows, 7 columns, and 7 nonzeros.
Presolve time = 0.00 sec. (0.04 ticks)

Iteration log . . .
Iteration:     1   Dual objective     =          1567.784371
main returns 0

<<< main


<<< done

